SCIP version 5.0.0 [precision: 8 byte] [memory: block] [mode: optimized] [LP solver: NONE] [GitHash: 3bbd232]
Copyright (C) 2002-2017 Konrad-Zuse-Zentrum fuer Informationstechnik Berlin (ZIB)

External codes: 
  Readline EditLine w  GNU library for command line editing (gnu.org/s/readline)
  CppAD 20160000.1     Algorithmic Differentiation of C++ algorithms developed by B. Bell (www.coin-or.org/CppAD)
  ZLIB 1.2.5           General purpose compression library by J. Gailly and M. Adler (zlib.net)
  GMP 6.1.2            GNU Multiple Precision Arithmetic Library developed by T. Granlund (gmplib.org)

user parameter file <scip.set> not found - using default parameters

read problem <../../Split_data/output/spectf/3/1_sample_spectf.logreg>
============

File name	:	../../Split_data/output/spectf/3/1_sample_spectf.logreg
Problem name 	:	1_sample_spectf
Number of data	:	214
Number of var	:	44
The given data has linear independence

[dim=1] time: 0.00833
[dim=2] time: 0.016884
[dim=3] time: 0.024789
[dim=4] time: 0.031784
[dim=5] time: 0.044734
[dim=6] time: 0.052413
[dim=7] time: 0.058785
[dim=8] time: 0.065095
[dim=9] time: 0.070998
[dim=10] time: 0.076788
[dim=11] Time of forward = 0.082422sec.
AIC: 138.298
k: 10

[dim=44] time: 0.028925
[dim=43] time: 0.046932
[dim=42] time: 0.065533
[dim=41] time: 0.078018
[dim=40] time: 0.093481
[dim=39] time: 0.10743
[dim=38] time: 0.117858
[dim=37] time: 0.133784
[dim=36] time: 0.146944
[dim=35] time: 0.160602
[dim=34] time: 0.171913
[dim=33] time: 0.1848
[dim=32] time: 0.197041
[dim=31] time: 0.208205
[dim=30] time: 0.21705
[dim=29] time: 0.226574
[dim=28] time: 0.234769
[dim=27] time: 0.243963
[dim=26] time: 0.253145
[dim=25] time: 0.261659
[dim=24] time: 0.268832
[dim=23] time: 0.276131
[dim=22] time: 0.283038
[dim=21] time: 0.290549
[dim=20] time: 0.295665
[dim=19] time: 0.300702
[dim=18] time: 0.308143
[dim=17] time: 0.314028
[dim=16] Time of backward = 0.318493sec.
AIC: 138.4
k: 17
